32 33
27
3 3 10 24
3 4 19 29
3 5 4 0
3 6 10 27
3 7 7 26
3 8 0 0
3 9 7 15
3 10 29 23
3 11 13 22
3 12 0 8
3 13 0 20
3 14 16 0
3 15 7 0
3 18 16 14
3 22 13 0
3 23 19 6
3 24 10 0
3 25 25 0
3 27 22 6
4 3 28 4
4 4 28 0
4 5 28 18
4 6 21 0
4 7 25 25
4 10 3 5
4 11 28 7
4 18 3 15
